; benchmark generated from python API
(set-info :status unknown)
(declare-fun DISJ_W_S2_R_S1 () Bool)
(declare-fun W_S2_V5 () Bool)
(declare-fun R_S2_V4 () Bool)
(declare-fun R_S2_V3 () Bool)
(declare-fun DISJ_W_S1_R_S2 () Bool)
(declare-fun DISJ_W_S1_R_S1 () Bool)
(declare-fun DISJ_W_S1_W_S2 () Bool)
(declare-fun R_S1_V1 () Bool)
(declare-fun DISJ_W_S2_R_S2 () Bool)
(declare-fun R_E1_V4 () Bool)
(declare-fun W_S1_V4 () Bool)
(declare-fun R_E1_V5 () Bool)
(declare-fun W_S1_V5 () Bool)
(declare-fun W_S2_V2 () Bool)
(declare-fun W_S2_V3 () Bool)
(declare-fun W_S2_V1 () Bool)
(declare-fun R_S2_V5 () Bool)
(declare-fun R_S2_V2 () Bool)
(declare-fun R_S2_V1 () Bool)
(declare-fun R_S1_V4 () Bool)
(declare-fun R_S1_V5 () Bool)
(declare-fun R_S1_V2 () Bool)
(declare-fun R_S1_V3 () Bool)
(declare-fun R_E1_V2 () Bool)
(declare-fun DISJ_W_S2_R_E1 () Bool)
(declare-fun R_E1_V3 () Bool)
(declare-fun W_S2_V4 () Bool)
(declare-fun W_S1_V3 () Bool)
(declare-fun W_S1_V2 () Bool)
(declare-fun W_S1_V1 () Bool)
(declare-fun R_E1_V1 () Bool)
(declare-fun DISJ_W_S1_R_E1 () Bool)
(assert
 (let (($x880 (not W_S2_V5)))
 (let (($x5909 (not R_S2_V4)))
 (let (($x2284 (not R_S2_V3)))
 (let (($x3698 (and $x2284 $x5909 $x880 DISJ_W_S2_R_S1)))
 (let (($x4015 (not $x3698)))
 (let (($x3840 (and DISJ_W_S1_R_S2 DISJ_W_S2_R_S1)))
 (let (($x1842 (not $x3840)))
 (let (($x861 (not (and (not R_S1_V1) DISJ_W_S2_R_S1 DISJ_W_S1_W_S2 DISJ_W_S1_R_S1))))
 (let (($x990 (and DISJ_W_S2_R_S1 DISJ_W_S2_R_S2)))
 (let (($x420 (not $x990)))
 (let (($x1894 (not (and W_S1_V4 R_E1_V4))))
 (let (($x825 (not (and W_S1_V5 R_E1_V5))))
 (let (($x1406 (forall ((V3_0 Int) )(forall ((V2_0 Int) )(forall ((V5_0 Int) )(forall ((V4_0 Int) )(forall ((MW_S1_V1 Bool) )(forall ((MW_S1_V3 Bool) )(forall ((MW_S1_V2 Bool) )(forall ((MW_S1_V5 Bool) )(forall ((MW_S1_V4 Bool) )(forall ((MW_S2_V1 Bool) )(forall ((MW_S2_V3 Bool) )(forall ((MW_S2_V2 Bool) )(forall ((MW_S2_V5 Bool) )(forall ((MW_S2_V4 Bool) )(forall ((S1_V1_!6074 Int) )(forall ((S1_V1_!6084 Int) )(forall ((S1_V1_!6095 Int) )(forall ((S1_V1_!6100 Int) )(forall ((S2_V5_!6082 Int) )(forall ((S2_V5_!6092 Int) )(forall ((S2_V5_!6109 Int) )(forall ((S2_V5_!6114 Int) )(forall ((S1_V3_!6075 Int) )(forall ((S1_V3_!6085 Int) )(forall ((S1_V3_!6096 Int) )(forall ((S1_V3_!6101 Int) )(forall ((S1_V2_!6076 Int) )(forall ((S1_V2_!6086 Int) )(forall ((S1_V2_!6097 Int) )(forall ((S1_V2_!6102 Int) )(forall ((E1_!6073 Int) )(forall ((E1_!6094 Int) )(forall ((E1_!6105 Int) )(forall ((S2_V4_!6083 Int) )(forall ((S2_V4_!6093 Int) )(forall ((S2_V4_!6110 Int) )(forall ((S2_V4_!6115 Int) )(forall ((S1_V5_!6077 Int) )(forall ((S1_V5_!6087 Int) )(forall ((S1_V5_!6098 Int) )(forall ((S1_V5_!6103 Int) )(forall ((S2_V1_!6079 Int) )(forall ((S2_V1_!6089 Int) )(forall ((S2_V1_!6106 Int) )(forall ((S2_V1_!6111 Int) )(forall ((S1_V4_!6078 Int) )(forall ((S1_V4_!6088 Int) )(forall ((S1_V4_!6099 Int) )(forall ((S1_V4_!6104 Int) )(forall ((S2_V2_!6081 Int) )(forall ((S2_V2_!6091 Int) )(forall ((S2_V2_!6108 Int) )(forall ((S2_V2_!6113 Int) )(forall ((S2_V3_!6080 Int) )(forall ((S2_V3_!6090 Int) )(forall ((S2_V3_!6107 Int) )(forall ((S2_V3_!6112 Int) )(let (($x1096 (= (ite MW_S2_V4 S2_V4_!6093 (ite MW_S1_V4 S1_V4_!6088 (ite MW_S2_V4 S2_V4_!6083 (ite MW_S1_V4 S1_V4_!6078 V4_0)))) (ite MW_S2_V4 S2_V4_!6115 (ite MW_S1_V4 S1_V4_!6104 V4_0)))))
 (let (($x1854 (= (ite MW_S2_V5 S2_V5_!6092 (ite MW_S1_V5 S1_V5_!6087 (ite MW_S2_V5 S2_V5_!6082 (ite MW_S1_V5 S1_V5_!6077 V5_0)))) (ite MW_S2_V5 S2_V5_!6114 (ite MW_S1_V5 S1_V5_!6103 V5_0)))))
 (let ((?x275 (ite MW_S1_V2 S1_V2_!6102 V2_0)))
 (let ((?x2898 (ite MW_S2_V2 S2_V2_!6113 ?x275)))
 (let ((?x5117 (ite MW_S1_V2 S1_V2_!6076 V2_0)))
 (let ((?x2007 (ite MW_S2_V2 S2_V2_!6081 ?x5117)))
 (let ((?x5049 (ite MW_S1_V2 S1_V2_!6086 ?x2007)))
 (let ((?x2248 (ite MW_S2_V2 S2_V2_!6091 ?x5049)))
 (let (($x1603 (= (ite MW_S2_V3 S2_V3_!6090 (ite MW_S1_V3 S1_V3_!6085 (ite MW_S2_V3 S2_V3_!6080 (ite MW_S1_V3 S1_V3_!6075 V3_0)))) (ite MW_S2_V3 S2_V3_!6112 (ite MW_S1_V3 S1_V3_!6101 V3_0)))))
 (let ((?x3275 (ite MW_S2_V1 S2_V1_!6106 E1_!6105)))
 (let ((?x3196 (+ 1 ?x3275)))
 (let ((?x1554 (ite MW_S2_V1 S2_V1_!6111 ?x3196)))
 (let ((?x2266 (ite MW_S1_V1 S1_V1_!6074 E1_!6073)))
 (let ((?x2022 (ite MW_S2_V1 S2_V1_!6079 ?x2266)))
 (let ((?x3646 (+ 1 ?x2022)))
 (let ((?x1811 (ite MW_S1_V1 S1_V1_!6084 ?x3646)))
 (let ((?x4154 (ite MW_S2_V1 S2_V1_!6089 ?x1811)))
 (let (($x1254 (>= (ite MW_S1_V1 S1_V1_!6100 (+ 1 (ite MW_S1_V1 S1_V1_!6095 E1_!6094))) (+ (- 1) ?x275))))
 (let (($x5801 (and (not (<= V2_0 E1_!6073)) (not (<= ?x2007 ?x3646)) (>= ?x4154 (+ (- 1) ?x2248)) (not (<= V2_0 E1_!6094)) (not (<= (ite MW_S1_V2 S1_V2_!6097 V2_0) (+ 1 (ite MW_S1_V1 S1_V1_!6095 E1_!6094)))) $x1254 (not (<= ?x275 E1_!6105)) (not (<= (ite MW_S2_V2 S2_V2_!6108 ?x275) ?x3196)) (>= ?x1554 (+ (- 1) ?x2898)))))
 (let (($x2338 (= S2_V3_!6112 S2_V3_!6090)))
 (let ((?x2197 (ite MW_S1_V4 S1_V4_!6078 V4_0)))
 (let ((?x821 (ite MW_S2_V4 S2_V4_!6083 ?x2197)))
 (let ((?x857 (ite MW_S1_V4 S1_V4_!6088 ?x821)))
 (let ((?x2654 (ite MW_S1_V4 S1_V4_!6104 V4_0)))
 (let ((?x438 (ite MW_S2_V4 S2_V4_!6110 ?x2654)))
 (let (($x5909 (not R_S2_V4)))
 (let ((?x1672 (ite MW_S1_V5 S1_V5_!6077 V5_0)))
 (let ((?x164 (ite MW_S2_V5 S2_V5_!6082 ?x1672)))
 (let ((?x2000 (ite MW_S1_V5 S1_V5_!6087 ?x164)))
 (let ((?x1495 (ite MW_S1_V5 S1_V5_!6103 V5_0)))
 (let ((?x5834 (ite MW_S2_V5 S2_V5_!6109 ?x1495)))
 (let (($x1796 (not R_S2_V5)))
 (let ((?x4889 (ite MW_S1_V3 S1_V3_!6075 V3_0)))
 (let ((?x2469 (ite MW_S2_V3 S2_V3_!6080 ?x4889)))
 (let ((?x4175 (ite MW_S1_V3 S1_V3_!6085 ?x2469)))
 (let ((?x2651 (ite MW_S1_V3 S1_V3_!6101 V3_0)))
 (let ((?x710 (ite MW_S2_V3 S2_V3_!6107 ?x2651)))
 (let (($x2284 (not R_S2_V3)))
 (let (($x2671 (and (or (not R_S2_V1) (= ?x3275 (+ (- 1) ?x1811))) (or $x2284 (= ?x710 ?x4175)) (or (not R_S2_V2) (= (ite MW_S2_V2 S2_V2_!6108 ?x275) ?x5049)) (or $x1796 (= ?x5834 ?x2000)) (or $x5909 (= ?x438 ?x857)))))
 (let (($x1075 (not $x2671)))
 (let (($x5001 (= S2_V3_!6112 S2_V3_!6080)))
 (let (($x204 (and (or (not R_S2_V1) (= ?x3275 (+ (- 1) ?x2266))) (or $x2284 (= ?x710 ?x4889)) (or (not R_S2_V2) (= (ite MW_S2_V2 S2_V2_!6108 ?x275) ?x5117)) (or $x1796 (= ?x5834 ?x1672)) (or $x5909 (= ?x438 ?x2197)))))
 (let (($x1601 (not $x204)))
 (let (($x4777 (= S2_V3_!6107 S2_V3_!6112)))
 (let (($x2409 (and (or (not R_S2_V1) (= E1_!6105 ?x3196)) (or $x2284 (= ?x2651 ?x710)) (or (not R_S2_V2) (= ?x275 (ite MW_S2_V2 S2_V2_!6108 ?x275))) (or $x1796 (= ?x1495 ?x5834)) (or $x5909 (= ?x2654 ?x438)))))
 (let (($x2593 (= S2_V3_!6107 S2_V3_!6090)))
 (let (($x3753 (and (or (not R_S2_V1) (= E1_!6105 ?x1811)) (or $x2284 (= ?x2651 ?x4175)) (or (not R_S2_V2) (= ?x275 ?x5049)) (or $x1796 (= ?x1495 ?x2000)) (or $x5909 (= ?x2654 ?x857)))))
 (let (($x1934 (not $x3753)))
 (let (($x2787 (= S2_V3_!6107 S2_V3_!6080)))
 (let (($x5006 (and (or (not R_S2_V1) (= E1_!6105 ?x2266)) (or $x2284 (= ?x2651 ?x4889)) (or (not R_S2_V2) (= ?x275 ?x5117)) (or $x1796 (= ?x1495 ?x1672)) (or $x5909 (= ?x2654 ?x2197)))))
 (let (($x1346 (= S2_V3_!6090 S2_V3_!6080)))
 (let (($x2451 (and (or (not R_S2_V1) (= ?x1811 ?x2266)) (or $x2284 (= ?x4175 ?x4889)) (or (not R_S2_V2) (= ?x5049 ?x5117)) (or $x1796 (= ?x2000 ?x1672)) (or $x5909 (= ?x857 ?x2197)))))
 (let (($x2473 (not $x2451)))
 (let (($x2706 (= S2_V2_!6113 S2_V2_!6108)))
 (let (($x3368 (and (or (not R_S2_V1) (= ?x3275 (+ (- 1) E1_!6105))) (or $x2284 (= ?x710 ?x2651)) (or (not R_S2_V2) (= (ite MW_S2_V2 S2_V2_!6108 ?x275) ?x275)) (or $x1796 (= ?x5834 ?x1495)) (or $x5909 (= ?x438 ?x2654)))))
 (let (($x1514 (not $x3368)))
 (let (($x3805 (= S2_V2_!6091 S2_V2_!6108)))
 (let (($x1156 (and (or (not R_S2_V1) (= ?x1811 E1_!6105)) (or $x2284 (= ?x4175 ?x2651)) (or (not R_S2_V2) (= ?x5049 ?x275)) (or $x1796 (= ?x2000 ?x1495)) (or $x5909 (= ?x857 ?x2654)))))
 (let (($x4413 (not $x1156)))
 (let (($x1365 (= S2_V2_!6081 S2_V2_!6113)))
 (let (($x2543 (and (or (not R_S2_V1) (= ?x2266 ?x3196)) (or $x2284 (= ?x4889 ?x710)) (or (not R_S2_V2) (= ?x5117 (ite MW_S2_V2 S2_V2_!6108 ?x275))) (or $x1796 (= ?x1672 ?x5834)) (or $x5909 (= ?x2197 ?x438)))))
 (let (($x3187 (not $x2543)))
 (let (($x5814 (= S2_V2_!6081 S2_V2_!6108)))
 (let (($x5189 (and (or (not R_S2_V1) (= ?x2266 E1_!6105)) (or $x2284 (= ?x4889 ?x2651)) (or (not R_S2_V2) (= ?x5117 ?x275)) (or $x1796 (= ?x1672 ?x1495)) (or $x5909 (= ?x2197 ?x2654)))))
 (let (($x2801 (not $x5189)))
 (let (($x6000 (= S2_V2_!6081 S2_V2_!6091)))
 (let (($x2754 (and (or (not R_S2_V1) (= ?x2266 ?x1811)) (or $x2284 (= ?x4889 ?x4175)) (or (not R_S2_V2) (= ?x5117 ?x5049)) (or $x1796 (= ?x1672 ?x2000)) (or $x5909 (= ?x2197 ?x857)))))
 (let (($x3757 (not $x2754)))
 (let (($x1322 (= S1_V4_!6104 S1_V4_!6088)))
 (let (($x5856 (and (or (not R_S1_V1) (= (ite MW_S1_V1 S1_V1_!6095 E1_!6094) ?x2022)) (or (not R_S1_V3) (= (ite MW_S1_V3 S1_V3_!6096 V3_0) ?x2469)) (or (not R_S1_V2) (= (ite MW_S1_V2 S1_V2_!6097 V2_0) ?x2007)) (or (not R_S1_V5) (= (ite MW_S1_V5 S1_V5_!6098 V5_0) ?x164)) (or (not R_S1_V4) (= (ite MW_S1_V4 S1_V4_!6099 V4_0) ?x821)))))
 (let (($x2454 (not $x5856)))
 (let (($x4951 (not R_S1_V4)))
 (let (($x2335 (or $x4951 (= (ite MW_S1_V4 S1_V4_!6099 V4_0) V4_0))))
 (let (($x2918 (not R_S1_V5)))
 (let (($x3361 (or $x2918 (= (ite MW_S1_V5 S1_V5_!6098 V5_0) V5_0))))
 (let (($x2652 (not R_S1_V2)))
 (let (($x2110 (or $x2652 (= (ite MW_S1_V2 S1_V2_!6097 V2_0) V2_0))))
 (let (($x699 (not R_S1_V3)))
 (let (($x3106 (or $x699 (= (ite MW_S1_V3 S1_V3_!6096 V3_0) V3_0))))
 (let (($x1707 (and (or (not R_S1_V1) (= (ite MW_S1_V1 S1_V1_!6095 E1_!6094) (+ (- 1) E1_!6073))) $x3106 $x2110 $x3361 $x2335)))
 (let (($x962 (not $x1707)))
 (let (($x1889 (or $x4951 (= V4_0 (ite MW_S1_V4 S1_V4_!6099 V4_0)))))
 (let (($x1178 (or $x2918 (= V5_0 (ite MW_S1_V5 S1_V5_!6098 V5_0)))))
 (let (($x5774 (or $x2652 (= V2_0 (ite MW_S1_V2 S1_V2_!6097 V2_0)))))
 (let (($x465 (or $x699 (= V3_0 (ite MW_S1_V3 S1_V3_!6096 V3_0)))))
 (let (($x2639 (and (or (not R_S1_V1) (= E1_!6094 (+ 1 (ite MW_S1_V1 S1_V1_!6095 E1_!6094)))) $x465 $x5774 $x1178 $x1889)))
 (let (($x6025 (not $x2639)))
 (let (($x3741 (= S1_V4_!6099 S1_V4_!6088)))
 (let (($x371 (or $x4951 (= V4_0 ?x821))))
 (let (($x1036 (or $x2918 (= V5_0 ?x164))))
 (let (($x2981 (or $x2652 (= V2_0 ?x2007))))
 (let (($x5858 (or $x699 (= V3_0 ?x2469))))
 (let (($x2225 (not (and (or (not R_S1_V1) (= E1_!6094 ?x3646)) $x5858 $x2981 $x1036 $x371))))
 (let (($x5000 (or $x4951 (= ?x821 V4_0))))
 (let (($x2072 (or $x2918 (= ?x164 V5_0))))
 (let (($x5925 (or $x2652 (= ?x2007 V2_0))))
 (let (($x4668 (or $x699 (= ?x2469 V3_0))))
 (let (($x5887 (and (or (not R_S1_V1) (= ?x2022 (+ (- 1) E1_!6073))) $x4668 $x5925 $x2072 $x5000)))
 (let (($x5161 (not $x5887)))
 (let (($x1847 (= S2_V1_!6089 S2_V1_!6111)))
 (let (($x1604 (and (or (not R_S2_V1) (= ?x1811 ?x3196)) (or $x2284 (= ?x4175 ?x710)) (or (not R_S2_V2) (= ?x5049 (ite MW_S2_V2 S2_V2_!6108 ?x275))) (or $x1796 (= ?x2000 ?x5834)) (or $x5909 (= ?x857 ?x438)))))
 (let (($x744 (not $x1604)))
 (let (($x2938 (= S1_V5_!6103 S1_V5_!6098)))
 (let (($x2281 (and (or (not R_S1_V1) (= (ite MW_S1_V1 S1_V1_!6095 E1_!6094) (+ (- 1) E1_!6094))) $x3106 $x2110 $x3361 $x2335)))
 (let (($x1070 (not $x2281)))
 (let (($x4321 (or (not (and (or (not R_S1_V1) (= E1_!6073 ?x3646)) $x5858 $x2981 $x1036 $x371)) (= S1_V5_!6077 S1_V5_!6087))))
 (let (($x4165 (and (or (not R_E1_V2) (= ?x275 V2_0)) (or (not R_E1_V5) (= ?x1495 V5_0)) (or (not R_E1_V4) (= ?x2654 V4_0)))))
 (let (($x5749 (= E1_!6073 E1_!6105)))
 (let (($x1034 (and (or (not R_E1_V2) (= V2_0 ?x275)) (or (not R_E1_V5) (= V5_0 ?x1495)) (or (not R_E1_V4) (= V4_0 ?x2654)))))
 (let (($x835 (= E1_!6073 E1_!6094)))
 (let (($x1081 (and (or (not R_S1_V1) (= ?x2022 (ite MW_S1_V1 S1_V1_!6095 E1_!6094))) (or $x699 (= ?x2469 (ite MW_S1_V3 S1_V3_!6096 V3_0))) (or $x2652 (= ?x2007 (ite MW_S1_V2 S1_V2_!6097 V2_0))) (or $x2918 (= ?x164 (ite MW_S1_V5 S1_V5_!6098 V5_0))) (or $x4951 (= ?x821 (ite MW_S1_V4 S1_V4_!6099 V4_0))))))
 (let (($x809 (not $x1081)))
 (let (($x602 (and (or (not R_S1_V1) (= ?x2022 (+ (- 1) E1_!6094))) $x4668 $x5925 $x2072 $x5000)))
 (let (($x1016 (not $x602)))
 (let (($x1300 (and (or (not R_S1_V1) (= E1_!6073 (+ 1 (ite MW_S1_V1 S1_V1_!6095 E1_!6094)))) $x465 $x5774 $x1178 $x1889)))
 (let (($x1951 (not $x1300)))
 (let (($x5201 (and (or $x1951 (= S1_V1_!6074 S1_V1_!6100)) (or $x5161 (= S1_V1_!6084 S1_V1_!6074)) (or $x1016 (= S1_V1_!6084 S1_V1_!6095)) (or $x809 (= S1_V1_!6084 S1_V1_!6100)) (or (not (or (not R_S1_V1) (= E1_!6094 E1_!6073))) (= S1_V1_!6095 S1_V1_!6074)) (or $x6025 (= S1_V1_!6095 S1_V1_!6100)) (or $x2801 (= S2_V5_!6082 S2_V5_!6109)) (or $x3187 (= S2_V5_!6082 S2_V5_!6114)) (or $x2473 (= S2_V5_!6092 S2_V5_!6082)) (or $x4413 (= S2_V5_!6092 S2_V5_!6109)) (or $x744 (= S2_V5_!6092 S2_V5_!6114)) (or $x1514 (= S2_V5_!6114 S2_V5_!6109)) (or (not (or (not R_S1_V1) $x835)) (= S1_V3_!6075 S1_V3_!6096)) (or $x5161 (= S1_V3_!6085 S1_V3_!6075)) (or $x1016 (= S1_V3_!6085 S1_V3_!6096)) (or $x809 (= S1_V3_!6085 S1_V3_!6101)) (or $x962 (= S1_V3_!6101 S1_V3_!6075)) (or $x1070 (= S1_V3_!6101 S1_V3_!6096)) (or $x1951 (= S1_V2_!6076 S1_V2_!6102)) (or $x5161 (= S1_V2_!6086 S1_V2_!6076)) (or $x1016 (= S1_V2_!6086 S1_V2_!6097)) (or $x809 (= S1_V2_!6086 S1_V2_!6102)) (or (not (or (not R_S1_V1) (= E1_!6094 E1_!6073))) (= S1_V2_!6097 S1_V2_!6076)) (or $x6025 (= S1_V2_!6097 S1_V2_!6102)) $x835 (or (not $x1034) $x5749) (or (not $x4165) (= E1_!6105 E1_!6094)) (or $x3757 (= S2_V4_!6083 S2_V4_!6093)) (or $x2801 (= S2_V4_!6083 S2_V4_!6110)) (or $x1934 (= S2_V4_!6110 S2_V4_!6093)) (or $x1601 (= S2_V4_!6115 S2_V4_!6083)) (or $x1075 (= S2_V4_!6115 S2_V4_!6093)) (or $x1514 (= S2_V4_!6115 S2_V4_!6110)) $x4321 (or (not (or (not R_S1_V1) $x835)) (= S1_V5_!6077 S1_V5_!6098)) (or $x2225 (= S1_V5_!6098 S1_V5_!6087)) (or $x962 (= S1_V5_!6103 S1_V5_!6077)) (or $x2454 (= S1_V5_!6103 S1_V5_!6087)) (or $x1070 $x2938) (or $x3757 (= S2_V1_!6079 S2_V1_!6089)) (or $x2801 (= S2_V1_!6079 S2_V1_!6106)) (or $x3187 (= S2_V1_!6079 S2_V1_!6111)) (or $x4413 (= S2_V1_!6089 S2_V1_!6106)) (or $x744 $x1847) (or $x1514 (= S2_V1_!6111 S2_V1_!6106)) (or $x5161 (= S1_V4_!6088 S1_V4_!6078)) (or (not (or (not R_S1_V1) (= E1_!6094 E1_!6073))) (= S1_V4_!6099 S1_V4_!6078)) (or $x2225 $x3741) (or $x6025 (= S1_V4_!6099 S1_V4_!6104)) (or $x962 (= S1_V4_!6104 S1_V4_!6078)) (or $x2454 $x1322) (or $x3757 $x6000) (or $x2801 $x5814) (or $x3187 $x1365) (or $x4413 $x3805) (or $x1075 (= S2_V2_!6113 S2_V2_!6091)) (or $x1514 $x2706) (or $x2473 $x1346) (or (not $x5006) $x2787) (or $x1934 $x2593) (or (not $x2409) $x4777) (or $x1601 $x5001) (or $x1075 $x2338) (not MW_S1_V1) (not MW_S1_V2) (or (not MW_S1_V5) W_S1_V5) (or (not MW_S1_V4) W_S1_V4) (or (not MW_S2_V1) W_S2_V1) (or (not MW_S2_V3) W_S2_V3) (or (not MW_S2_V2) W_S2_V2) (or (not MW_S2_V5) W_S2_V5))))
 (or (not $x5201) (not $x5801) (and (= ?x4154 ?x1554) $x1603 (= ?x2248 ?x2898) $x1854 $x1096))))))))))))))))))))))))))))))))))))))))))))))))))))))))))))))))))))))))))))))))))))))))))))))))))))))))))))))))))))))))
 )
 )
 )
 )
 )
 )
 )
 )
 )
 )
 )
 )
 )
 )
 )
 )
 )
 )
 )
 )
 )
 )
 )
 )
 )
 )
 )
 )
 )
 )
 )
 )
 )
 )
 )
 )
 )
 )
 )
 )
 )
 )
 )
 )
 )
 )
 )
 )
 )
 )
 )
 )
 )
 )
 )
 )
 ))
 (let (($x2452 (not (or (and W_S2_V2 R_E1_V2) (and W_S2_V5 R_E1_V5) R_E1_V4))))
 (let (($x2102 (= DISJ_W_S2_R_E1 $x2452)))
 (let (($x2313 (and W_S2_V5 R_S2_V5)))
 (let (($x1337 (and W_S2_V2 R_S2_V2)))
 (let (($x851 (and W_S2_V3 R_S2_V3)))
 (let (($x106 (and W_S2_V1 R_S2_V1)))
 (let (($x3733 (= DISJ_W_S2_R_S2 (not (or $x106 $x851 $x1337 $x2313 R_S2_V4)))))
 (let (($x3432 (and W_S2_V5 R_S1_V5)))
 (let (($x1827 (and W_S2_V2 R_S1_V2)))
 (let (($x441 (and W_S2_V3 R_S1_V3)))
 (let (($x3063 (and W_S2_V1 R_S1_V1)))
 (let (($x1579 (= DISJ_W_S2_R_S1 (not (or $x3063 $x441 $x1827 $x3432 R_S1_V4)))))
 (let (($x5175 (= DISJ_W_S1_W_S2 (not (or W_S2_V3 (and W_S1_V5 W_S2_V5) W_S1_V4)))))
 (let (($x5870 (not R_E1_V3)))
 (let (($x1512 (not (or R_S2_V3 (and W_S1_V5 R_S2_V5) (and W_S1_V4 R_S2_V4)))))
 (let (($x1807 (= DISJ_W_S1_R_S2 $x1512)))
 (let (($x2468 (not (or R_S1_V3 (and W_S1_V5 R_S1_V5) (and W_S1_V4 R_S1_V4)))))
 (let (($x1884 (= DISJ_W_S1_R_S1 $x2468)))
 (let (($x1823 (not W_S2_V2)))
 (let (($x3405 (not R_S2_V1)))
 (let (($x4119 (and $x3405 $x2284 $x1823 $x880 DISJ_W_S2_R_S1)))
 (let (($x3861 (not W_S2_V3)))
 (let (($x1796 (not R_S2_V5)))
 (let (($x240 (and $x3405 $x1796 $x1823 $x3861 DISJ_W_S2_R_S1)))
 (let (($x2370 (and $x3405 $x1823 $x880 $x3861 DISJ_W_S2_R_S1)))
 (let (($x205 (and $x3405 $x2284 $x1796 $x1823 DISJ_W_S2_R_S1)))
 (let (($x5089 (and $x3405 $x5909 $x1823 $x880 DISJ_W_S2_R_S1)))
 (let (($x267 (and $x3405 $x1796 $x5909 $x1823 DISJ_W_S2_R_S1)))
 (let (($x1874 (and $x3405 $x5909 $x1823 $x3861 DISJ_W_S2_R_S1)))
 (let (($x1841 (and $x3405 $x2284 $x5909 $x1823 DISJ_W_S2_R_S1)))
 (let (($x2799 (not W_S1_V4)))
 (let (($x775 (and $x1796 $x2799 $x3861 DISJ_W_S2_R_S1)))
 (let (($x3657 (and $x1796 $x5909 $x3861 DISJ_W_S2_R_S1)))
 (let (($x1687 (and $x5909 (not W_S1_V5) $x3861 DISJ_W_S2_R_S1)))
 (let (($x1412 (and $x5909 $x880 $x3861 DISJ_W_S2_R_S1)))
 (let (($x767 (and DISJ_W_S1_W_S2 DISJ_W_S2_R_S1)))
 (let (($x5054 (and $x2284 $x2799 $x880 DISJ_W_S2_R_S1)))
 (let (($x2439 (and (not W_S2_V1) $x1823)))
 (let (($x190 (and $x1823 DISJ_W_S2_R_S2)))
 (let (($x5769 (or $x990 $x190 $x3840 $x3698 $x2439 $x5054 $x767 $x1412 $x1687 $x3657 $x775 $x1841 $x1874 $x267 $x5089 $x205 $x2370 $x240 $x4119)))
 (let (($x132 (not R_S1_V1)))
 (let (($x564 (and $x132 DISJ_W_S1_R_S1)))
 (let (($x6057 (and $x1823 DISJ_W_S2_R_S1 DISJ_W_S1_R_S1)))
 (let (($x1044 (or $x6057 $x2439 $x564)))
 (let (($x685 (not W_S1_V2)))
 (let (($x5757 (not W_S1_V1)))
 (let (($x2782 (not R_E1_V1)))
 (let (($x5465 (and DISJ_W_S1_R_E1 $x2782 $x5757 $x685 $x1044 $x5769 W_S1_V3 W_S2_V4 $x1884 $x1807 $x5870 $x5175 $x1579 $x3733 $x2102 $x1406 $x825 $x1894)))
 (and $x5465 $x420 $x861 $x1842 $x4015)))))))))))))))))))))))))))))))))))))))))))))))))))))))))))))))
(check-sat)
